% Logging successfully configured
%%%mzn-stat: initTime=0.016523977
%%%mzn-stat: objective=770
%%%mzn-stat: nodes=64819
%%%mzn-stat: restarts=1
%%%mzn-stat: peakDepth=834
%%%mzn-stat: solveTime=73.79685043
%%%mzn-stat: variables=1354
%%%mzn-stat: propagators=1036
%%%mzn-stat: failures=51942
%%%mzn-stat: propagations=2886755
%%%mzn-stat: nogoods=51942
%%%mzn-stat: numAtomicConstraintsPropagated=0
%%%mzn-stat: allDifferentNumber1PropagationsTotal=347579
%%%mzn-stat: allDifferentNumber1PropagationsThatFoundConflict=3086
%%%mzn-stat: allDifferentNumber1PropagationsThatPruned=255109
%%%mzn-stat: allDifferentNumber1TotalValuesPruned=920292
%%%mzn-stat: allDifferentNumber1TotalHallSetSizeConflict=66665
%%%mzn-stat: allDifferentNumber1NumberOfConflicts=3086
%%%mzn-stat: allDifferentNumber1MaxHallSetSizeConflict=35
%%%mzn-stat: allDifferentNumber1TotalPruningHallSetSize=4203178
%%%mzn-stat: allDifferentNumber1NumberOfPruningExplanations=920292
%%%mzn-stat: allDifferentNumber1MaxPruningHallSetSize=67
%%%mzn-stat: allDifferentNumber1TotalFixedEdgesAtConflict=204900
%%%mzn-stat: allDifferentNumber1TotalVarsInvolvedInPruning=772726
%%%mzn-stat: allDifferentNumber1MaxValuesPrunedFromSingleVar=6
%%%mzn-stat: allDifferentNumber1TotalSccSizeAtPruning=2193365
%%%mzn-stat: allDifferentNumber1NumberOfSccPruningCalls=255109
%%%mzn-stat: circuitNumber2PropagationsThatFoundConflict=45001
%%%mzn-stat: circuitNumber2TotalFixedEdgesAtConflict=3809957
%%%mzn-stat: circuitNumber2NumberOfConflicts=45001
%%%mzn-stat: circuitNumber2PropagationsThatPruned=57867
%%%mzn-stat: circuitNumber2PropagationsTotal=222421
%%%mzn-stat: AverageConflictSize=40.489526779869855
%%%mzn-stat: NumUnitNogoodsLearned=0
%%%mzn-stat: AverageLearnedNogoodLength=68.70628778252666
%%%mzn-stat: AverageBacktrackAmount=0
%%%mzn-stat: AverageLbd=32.743098070925264
%%%mzn-stat: 2AutonomousSearchNumBackupCalled=741
%%%mzn-stat: 2AutonomousSearchNumPredicatesRemoved=0
%%%mzn-stat: 2AutonomousSearchNumCalls=803
%%%mzn-stat: 2AutonomousSearchNumPredicatesAdded=7754
%%%mzn-stat: 2AutonomousSearchAverageSizeOfHeap=400.90535491905354
%%%mzn-stat: 2AutonomousSearchNumAssignedPredicatesEncountered=14572
%%%mzn-stat-end
maxleg = 770;
succ = array1d(1..100,[34, 58, 6, 37, 14, 5, 3, 31, 40, 50, 7, 56, 16, 27, 24, 47, 18, 78, 13, 22, 91, 35, 11, 36, 26, 32, 33, 45, 38, 25, 30, 41, 52, 98, 100, 79, 2, 39, 65, 21, 29, 64, 15, 42, 89, 57, 82, 62, 80, 51, 93, 76, 68, 23, 10, 28, 60, 53, 12, 83, 87, 92, 90, 74, 96, 73, 77, 49, 97, 43, 19, 9, 71, 54, 4, 55, 17, 85, 46, 86, 75, 88, 63, 20, 70, 95, 66, 72, 1, 8, 48, 69, 94, 81, 59, 84, 44, 67, 61, 99]);
% time elapsed: 85.00 s
----------
%%%mzn-stat: initTime=0.016523977
%%%mzn-stat: objective=738
%%%mzn-stat: nodes=65621
%%%mzn-stat: restarts=1
%%%mzn-stat: peakDepth=834
%%%mzn-stat: solveTime=73.815369428
%%%mzn-stat: variables=1354
%%%mzn-stat: propagators=1036
%%%mzn-stat: failures=51942
%%%mzn-stat: propagations=2888698
%%%mzn-stat: nogoods=51942
%%%mzn-stat: numAtomicConstraintsPropagated=0
%%%mzn-stat: allDifferentNumber1PropagationsTotal=347712
%%%mzn-stat: allDifferentNumber1PropagationsThatFoundConflict=3086
%%%mzn-stat: allDifferentNumber1PropagationsThatPruned=255179
%%%mzn-stat: allDifferentNumber1TotalValuesPruned=920700
%%%mzn-stat: allDifferentNumber1TotalHallSetSizeConflict=66665
%%%mzn-stat: allDifferentNumber1NumberOfConflicts=3086
%%%mzn-stat: allDifferentNumber1MaxHallSetSizeConflict=35
%%%mzn-stat: allDifferentNumber1TotalPruningHallSetSize=4204644
%%%mzn-stat: allDifferentNumber1NumberOfPruningExplanations=920700
%%%mzn-stat: allDifferentNumber1MaxPruningHallSetSize=67
%%%mzn-stat: allDifferentNumber1TotalFixedEdgesAtConflict=204900
%%%mzn-stat: allDifferentNumber1TotalVarsInvolvedInPruning=773103
%%%mzn-stat: allDifferentNumber1MaxValuesPrunedFromSingleVar=6
%%%mzn-stat: allDifferentNumber1TotalSccSizeAtPruning=2193710
%%%mzn-stat: allDifferentNumber1NumberOfSccPruningCalls=255179
%%%mzn-stat: circuitNumber2PropagationsThatFoundConflict=45001
%%%mzn-stat: circuitNumber2TotalFixedEdgesAtConflict=3809957
%%%mzn-stat: circuitNumber2NumberOfConflicts=45001
%%%mzn-stat: circuitNumber2PropagationsThatPruned=57873
%%%mzn-stat: circuitNumber2PropagationsTotal=222490
%%%mzn-stat: AverageConflictSize=40.489526779869855
%%%mzn-stat: NumUnitNogoodsLearned=0
%%%mzn-stat: AverageLearnedNogoodLength=68.70628778252666
%%%mzn-stat: AverageBacktrackAmount=0
%%%mzn-stat: AverageLbd=32.743098070925264
%%%mzn-stat: 2AutonomousSearchNumBackupCalled=1480
%%%mzn-stat: 2AutonomousSearchNumPredicatesRemoved=0
%%%mzn-stat: 2AutonomousSearchNumCalls=1543
%%%mzn-stat: 2AutonomousSearchNumPredicatesAdded=7754
%%%mzn-stat: 2AutonomousSearchAverageSizeOfHeap=213.65392093324692
%%%mzn-stat: 2AutonomousSearchNumAssignedPredicatesEncountered=22313
%%%mzn-stat-end
maxleg = 738;
succ = array1d(1..100,[34, 10, 6, 37, 14, 5, 3, 31, 40, 50, 7, 28, 16, 27, 24, 47, 18, 43, 13, 22, 11, 29, 21, 36, 26, 32, 33, 45, 38, 25, 30, 41, 52, 79, 49, 46, 96, 39, 12, 23, 20, 44, 15, 9, 1, 8, 72, 62, 68, 51, 75, 55, 56, 64, 76, 58, 90, 59, 95, 57, 99, 91, 48, 74, 53, 71, 77, 78, 97, 85, 73, 82, 19, 61, 4, 93, 17, 86, 89, 60, 2, 88, 98, 65, 35, 80, 66, 42, 63, 83, 92, 69, 94, 81, 70, 84, 54, 67, 100, 87]);
% time elapsed: 85.01 s
----------
%%%mzn-stat: initTime=0.016523977
%%%mzn-stat: objective=557
%%%mzn-stat: nodes=81835
%%%mzn-stat: restarts=3
%%%mzn-stat: peakDepth=900
%%%mzn-stat: solveTime=91.714044465
%%%mzn-stat: variables=1354
%%%mzn-stat: propagators=1036
%%%mzn-stat: failures=66758
%%%mzn-stat: propagations=3379868
%%%mzn-stat: nogoods=66758
%%%mzn-stat: numAtomicConstraintsPropagated=0
%%%mzn-stat: allDifferentNumber1PropagationsTotal=404147
%%%mzn-stat: allDifferentNumber1PropagationsThatFoundConflict=3319
%%%mzn-stat: allDifferentNumber1PropagationsThatPruned=295594
%%%mzn-stat: allDifferentNumber1TotalValuesPruned=996833
%%%mzn-stat: allDifferentNumber1TotalHallSetSizeConflict=67403
%%%mzn-stat: allDifferentNumber1NumberOfConflicts=3319
%%%mzn-stat: allDifferentNumber1MaxHallSetSizeConflict=35
%%%mzn-stat: allDifferentNumber1TotalPruningHallSetSize=4333823
%%%mzn-stat: allDifferentNumber1NumberOfPruningExplanations=996833
%%%mzn-stat: allDifferentNumber1MaxPruningHallSetSize=74
%%%mzn-stat: allDifferentNumber1TotalFixedEdgesAtConflict=225866
%%%mzn-stat: allDifferentNumber1TotalVarsInvolvedInPruning=840605
%%%mzn-stat: allDifferentNumber1MaxValuesPrunedFromSingleVar=8
%%%mzn-stat: allDifferentNumber1TotalSccSizeAtPruning=2272493
%%%mzn-stat: allDifferentNumber1NumberOfSccPruningCalls=295594
%%%mzn-stat: circuitNumber2PropagationsThatFoundConflict=59543
%%%mzn-stat: circuitNumber2TotalFixedEdgesAtConflict=5203335
%%%mzn-stat: circuitNumber2NumberOfConflicts=59543
%%%mzn-stat: circuitNumber2PropagationsThatPruned=67212
%%%mzn-stat: circuitNumber2PropagationsTotal=262220
%%%mzn-stat: AverageConflictSize=49.74397076005872
%%%mzn-stat: NumUnitNogoodsLearned=0
%%%mzn-stat: AverageLearnedNogoodLength=73.30345426765332
%%%mzn-stat: AverageBacktrackAmount=0
%%%mzn-stat: AverageLbd=36.31921267863028
%%%mzn-stat: 2AutonomousSearchNumBackupCalled=2217
%%%mzn-stat: 2AutonomousSearchNumPredicatesRemoved=0
%%%mzn-stat: 2AutonomousSearchNumCalls=2592
%%%mzn-stat: 2AutonomousSearchNumPredicatesAdded=13916
%%%mzn-stat: 2AutonomousSearchAverageSizeOfHeap=1189.869212962963
%%%mzn-stat: 2AutonomousSearchNumAssignedPredicatesEncountered=58151
%%%mzn-stat-end
maxleg = 557;
succ = array1d(1..100,[34, 10, 6, 37, 14, 5, 3, 31, 40, 50, 7, 28, 16, 27, 24, 47, 18, 43, 13, 22, 11, 29, 21, 36, 26, 32, 33, 86, 38, 25, 30, 41, 52, 79, 49, 46, 96, 39, 12, 23, 20, 44, 77, 9, 1, 8, 72, 62, 68, 51, 75, 55, 56, 64, 76, 58, 90, 59, 95, 57, 99, 91, 48, 74, 53, 71, 15, 78, 97, 85, 73, 82, 19, 61, 4, 93, 67, 17, 89, 60, 2, 88, 98, 65, 35, 80, 66, 42, 63, 83, 92, 69, 94, 81, 70, 84, 54, 45, 100, 87]);
% time elapsed: 102.92 s
----------
%%%mzn-stat: initTime=0.016523977
%%%mzn-stat: objective=481
%%%mzn-stat: nodes=82654
%%%mzn-stat: restarts=3
%%%mzn-stat: peakDepth=900
%%%mzn-stat: solveTime=91.735348905
%%%mzn-stat: variables=1354
%%%mzn-stat: propagators=1036
%%%mzn-stat: failures=66764
%%%mzn-stat: propagations=3382020
%%%mzn-stat: nogoods=66764
%%%mzn-stat: numAtomicConstraintsPropagated=0
%%%mzn-stat: allDifferentNumber1PropagationsTotal=404316
%%%mzn-stat: allDifferentNumber1PropagationsThatFoundConflict=3319
%%%mzn-stat: allDifferentNumber1PropagationsThatPruned=295683
%%%mzn-stat: allDifferentNumber1TotalValuesPruned=997294
%%%mzn-stat: allDifferentNumber1TotalHallSetSizeConflict=67403
%%%mzn-stat: allDifferentNumber1NumberOfConflicts=3319
%%%mzn-stat: allDifferentNumber1MaxHallSetSizeConflict=35
%%%mzn-stat: allDifferentNumber1TotalPruningHallSetSize=4334906
%%%mzn-stat: allDifferentNumber1NumberOfPruningExplanations=997294
%%%mzn-stat: allDifferentNumber1MaxPruningHallSetSize=74
%%%mzn-stat: allDifferentNumber1TotalFixedEdgesAtConflict=225866
%%%mzn-stat: allDifferentNumber1TotalVarsInvolvedInPruning=841037
%%%mzn-stat: allDifferentNumber1MaxValuesPrunedFromSingleVar=8
%%%mzn-stat: allDifferentNumber1TotalSccSizeAtPruning=2272818
%%%mzn-stat: allDifferentNumber1NumberOfSccPruningCalls=295683
%%%mzn-stat: circuitNumber2PropagationsThatFoundConflict=59549
%%%mzn-stat: circuitNumber2TotalFixedEdgesAtConflict=5203881
%%%mzn-stat: circuitNumber2NumberOfConflicts=59549
%%%mzn-stat: circuitNumber2PropagationsThatPruned=67218
%%%mzn-stat: circuitNumber2PropagationsTotal=262307
%%%mzn-stat: AverageConflictSize=49.73979989215745
%%%mzn-stat: NumUnitNogoodsLearned=0
%%%mzn-stat: AverageLearnedNogoodLength=73.29831945359774
%%%mzn-stat: AverageBacktrackAmount=0
%%%mzn-stat: AverageLbd=36.31693727158349
%%%mzn-stat: 2AutonomousSearchNumBackupCalled=2959
%%%mzn-stat: 2AutonomousSearchNumPredicatesRemoved=0
%%%mzn-stat: 2AutonomousSearchNumCalls=3335
%%%mzn-stat: 2AutonomousSearchNumPredicatesAdded=14384
%%%mzn-stat: 2AutonomousSearchAverageSizeOfHeap=927.9817091454273
%%%mzn-stat: 2AutonomousSearchNumAssignedPredicatesEncountered=68829
%%%mzn-stat-end
maxleg = 481;
succ = array1d(1..100,[34, 10, 6, 37, 14, 5, 3, 31, 40, 50, 7, 28, 16, 27, 24, 47, 18, 43, 13, 22, 11, 29, 21, 36, 26, 32, 33, 56, 38, 25, 30, 41, 52, 45, 49, 46, 96, 39, 12, 23, 60, 44, 67, 9, 63, 8, 72, 62, 68, 51, 75, 55, 58, 64, 76, 53, 79, 59, 95, 57, 99, 1, 89, 74, 20, 71, 77, 80, 97, 35, 73, 82, 19, 61, 4, 93, 15, 85, 90, 86, 2, 88, 91, 65, 17, 78, 66, 42, 98, 48, 92, 69, 94, 81, 70, 84, 54, 83, 100, 87]);
% time elapsed: 102.94 s
----------
